70 30,20 21,52 17,84 67
93 1,80 23,117 -17,58 4
89 -3,69 67,95 47,55 -21
88 -18,105 16,72 -2,59 24
108 10,25 42,59 39,89 -18
72 -1,37 20,114 -23,104 -14
54 55,85 31,34 -30,91 4
33 -22,101 -13,56 42,43 46
32 -2,68 21,69 39,35 -29
71 2,23 15,59 9,33 44
